p cnf 71 13
-15 24 2 42 -4 -40 3 0
6 -18 -53 63 28 19 -22 0
-18 2 -14 -7 33 -15 42 0
41 -11 5 -61 19 1 23 0
15 -3 -36 -29 53 54 -45 0
-9 27 2 -17 -56 -6 -23 0
-48 -27 -21 -19 28 6 47 0
16 49 -13 -3 1 -2 -59 0
33 -15 10 -4 17 7 16 0
18 -68 1 19 -24 52 -17 0
3 5 18 -2 22 25 -28 0
59 23 68 40 26 -8 -2 0
-34 -1 -11 -8 27 3 6 0
